c description: Tseitin formula on Random 4-regular graph of 20 vertices, with odd charge
c generator: CNFgen (0.9.5)
c copyright: (C) 2012-2026 Massimo Lauria <massimo.lauria@uniroma1.it>
c url: https://massimolauria.net/cnfgen
c command line: cnfgen tseitin 20
c
p cnf 40 160
1 2 3 4 0
1 2 -3 -4 0
1 -2 3 -4 0
1 -2 -3 4 0
-1 2 3 -4 0
-1 2 -3 4 0
-1 -2 3 4 0
-1 -2 -3 -4 0
5 6 7 -8 0
5 6 -7 8 0
5 -6 7 8 0
5 -6 -7 -8 0
-5 6 7 8 0
-5 6 -7 -8 0
-5 -6 7 -8 0
-5 -6 -7 8 0
9 10 11 -12 0
9 10 -11 12 0
9 -10 11 12 0
9 -10 -11 -12 0
-9 10 11 12 0
-9 10 -11 -12 0
-9 -10 11 -12 0
-9 -10 -11 12 0
9 13 14 -15 0
9 13 -14 15 0
9 -13 14 15 0
9 -13 -14 -15 0
-9 13 14 15 0
-9 13 -14 -15 0
-9 -13 14 -15 0
-9 -13 -14 15 0
10 16 17 18 0
10 16 -17 -18 0
10 -16 17 -18 0
10 -16 -17 18 0
-10 16 17 -18 0
-10 16 -17 18 0
-10 -16 17 18 0
-10 -16 -17 -18 0
5 16 19 -20 0
5 16 -19 20 0
5 -16 19 20 0
5 -16 -19 -20 0
-5 16 19 20 0
-5 16 -19 -20 0
-5 -16 19 -20 0
-5 -16 -19 20 0
13 21 22 23 0
13 21 -22 -23 0
13 -21 22 -23 0
13 -21 -22 23 0
-13 21 22 -23 0
-13 21 -22 23 0
-13 -21 22 23 0
-13 -21 -22 -23 0
21 24 25 -26 0
21 24 -25 26 0
21 -24 25 26 0
21 -24 -25 -26 0
-21 24 25 26 0
-21 24 -25 -26 0
-21 -24 25 -26 0
-21 -24 -25 26 0
6 27 28 29 0
6 27 -28 -29 0
6 -27 28 -29 0
6 -27 -28 29 0
-6 27 28 -29 0
-6 27 -28 29 0
-6 -27 28 29 0
-6 -27 -28 -29 0
17 27 30 -31 0
17 27 -30 31 0
17 -27 30 31 0
17 -27 -30 -31 0
-17 27 30 31 0
-17 27 -30 -31 0
-17 -27 30 -31 0
-17 -27 -30 31 0
7 11 19 -32 0
7 11 -19 32 0
7 -11 19 32 0
7 -11 -19 -32 0
-7 11 19 32 0
-7 11 -19 -32 0
-7 -11 19 -32 0
-7 -11 -19 32 0
1 14 24 33 0
1 14 -24 -33 0
1 -14 24 -33 0
1 -14 -24 33 0
-1 14 24 -33 0
-1 14 -24 33 0
-1 -14 24 33 0
-1 -14 -24 -33 0
18 28 34 -35 0
18 28 -34 35 0
18 -28 34 35 0
18 -28 -34 -35 0
-18 28 34 35 0
-18 28 -34 -35 0
-18 -28 34 -35 0
-18 -28 -34 35 0
2 12 34 -36 0
2 12 -34 36 0
2 -12 34 36 0
2 -12 -34 -36 0
-2 12 34 36 0
-2 12 -34 -36 0
-2 -12 34 -36 0
-2 -12 -34 36 0
29 30 37 38 0
29 30 -37 -38 0
29 -30 37 -38 0
29 -30 -37 38 0
-29 30 37 -38 0
-29 30 -37 38 0
-29 -30 37 38 0
-29 -30 -37 -38 0
3 35 39 40 0
3 35 -39 -40 0
3 -35 39 -40 0
3 -35 -39 40 0
-3 35 39 -40 0
-3 35 -39 40 0
-3 -35 39 40 0
-3 -35 -39 -40 0
20 31 32 39 0
20 31 -32 -39 0
20 -31 32 -39 0
20 -31 -32 39 0
-20 31 32 -39 0
-20 31 -32 39 0
-20 -31 32 39 0
-20 -31 -32 -39 0
4 25 36 -37 0
4 25 -36 37 0
4 -25 36 37 0
4 -25 -36 -37 0
-4 25 36 37 0
-4 25 -36 -37 0
-4 -25 36 -37 0
-4 -25 -36 37 0
8 22 38 40 0
8 22 -38 -40 0
8 -22 38 -40 0
8 -22 -38 40 0
-8 22 38 -40 0
-8 22 -38 40 0
-8 -22 38 40 0
-8 -22 -38 -40 0
15 23 26 -33 0
15 23 -26 33 0
15 -23 26 33 0
15 -23 -26 -33 0
-15 23 26 33 0
-15 23 -26 -33 0
-15 -23 26 -33 0
-15 -23 -26 33 0
